NAME: line_55_37
TYPE: TSP
COMMENT: srandom_55_37
DIMENSION: 55
EDGE_WEIGHT_TYPE: EUC_2D
NODE_COORD_SECTION
1 4212 4601
2 1924 2536
3 2402 2985
4 453 1544
5 589 1525
6 1782 2691
7 291 1113
8 4216 3759
9 2902 325
10 1834 3465
11 4653 212
12 3164 2339
13 73 2038
14 1585 3515
15 1400 666
16 3583 3266
17 3522 3565
18 2723 377
19 3824 2397
20 411 4428
21 642 3637
22 1437 3612
23 4028 3889
24 2501 1314
25 2006 3348
26 1059 713
27 1359 3815
28 3142 2991
29 2638 3220
30 574 4249
31 3209 323
32 4831 570
33 569 4503
34 3701 3748
35 3163 770
36 145 3461
37 362 1142
38 2324 3291
39 1816 1350
40 811 4097
41 4196 1974
42 4592 1236
43 659 1780
44 1202 773
45 3793 951
46 2013 2488
47 2152 1413
48 1872 2187
49 495 1481
50 930 1348
51 2702 4441
52 4041 732
53 4272 4700
54 2238 435
55 2943 2931
